; benchmark generated from python API
(set-info :status unknown)
(declare-fun x_month () Int)
(declare-fun x_day () Int)
(declare-fun x_year () Int)
(declare-fun y_month () Int)
(declare-fun y_day () Int)
(declare-fun y_year () Int)
(assert
 (>= x_month 1))
(assert
 (<= x_month 12))
(assert
 (>= x_day 1))
(assert
 (<= x_day 31))
(assert
 (let (($x121 (<= x_day 28)))
 (let (($x136 (<= x_day 29)))
 (let (($x586 (= (mod x_year 400) 0)))
 (let (($x740 (= (mod x_year 4) 0)))
 (let (($x567 (ite (or (and $x740 (and (distinct (mod x_year 100) 0) true)) $x586) $x136 $x121)))
 (let (($x741 (= x_month 2)))
 (ite $x741 $x567 true))))))))
(assert
 (let (($x822 (<= x_day 30)))
 (let (($x633 (or (= x_month 4) (= x_month 6) (= x_month 9) (= x_month 11))))
 (ite $x633 $x822 true))))
(assert
 (>= y_month 1))
(assert
 (<= y_month 12))
(assert
 (>= y_day 1))
(assert
 (<= y_day 31))
(assert
 (let (($x118 (<= y_day 28)))
 (let (($x784 (<= y_day 29)))
 (let (($x398 (= (mod y_year 400) 0)))
 (let (($x592 (= (mod y_year 4) 0)))
 (let (($x698 (ite (or (and $x592 (and (distinct (mod y_year 100) 0) true)) $x398) $x784 $x118)))
 (let (($x563 (= y_month 2)))
 (ite $x563 $x698 true))))))))
(assert
 (let (($x809 (<= y_day 30)))
 (let (($x783 (= y_month 4)))
 (let (($x668 (or $x783 (= y_month 6) (= y_month 9) (= y_month 11))))
 (ite $x668 $x809 true)))))
(assert
 (let (($x655 (= x_day 31)))
 (let (($x610 (= x_month 1)))
 (let (($x589 (= x_year 2023)))
 (and $x589 $x610 $x655)))))
(assert
 (let (($x29 (or (and (= (mod 2000 4) 0) (and (distinct (mod 2000 100) 0) true)) (= (mod 2000 400) 0))))
 (let ((?x36 (ite (= 3 2) (ite $x29 31 31) (ite (= 3 1) (ite $x29 0 0) 0))))
 (let ((?x46 (ite (= 3 4) (ite $x29 91 90) (ite (= 3 3) (ite $x29 60 59) ?x36))))
 (let ((?x58 (ite (= 3 6) (ite $x29 152 151) (ite (= 3 5) (ite $x29 121 120) ?x46))))
 (let ((?x70 (ite (= 3 8) (ite $x29 213 212) (ite (= 3 7) (ite $x29 182 181) ?x58))))
 (let ((?x82 (ite (= 3 10) (ite $x29 274 273) (ite (= 3 9) (ite $x29 244 243) ?x70))))
 (let ((?x94 (ite (= 3 12) (ite $x29 335 334) (ite (= 3 11) (ite $x29 305 304) ?x82))))
 (let ((?x16 (- (+ (* 365 (- 2000 1)) (div (- 2000 1) 4)) (div (- 2000 1) 100))))
 (let ((?x97 (+ (+ (+ ?x16 (div (- 2000 1) 400)) ?x94) (- 1 1))))
 (let ((?x234 (+ (mod (- (+ x_month (+ (* 0 12) 3)) 1) 12) 1)))
 (let ((?x273 (ite (or (= ?x234 4) (= ?x234 6) (= ?x234 9) (= ?x234 11)) 30 31)))
 (let ((?x233 (+ 0 (div (- (+ x_month (+ (* 0 12) 3)) 1) 12))))
 (let ((?x785 (+ x_year ?x233)))
 (let (($x627 (or (and (= (mod ?x785 4) 0) (and (distinct (mod ?x785 100) 0) true)) (= (mod ?x785 400) 0))))
 (let ((?x274 (ite (= ?x234 2) (ite $x627 29 28) ?x273)))
 (let ((?x657 (ite (< x_day 1) 1 (ite (> x_day ?x274) ?x274 x_day))))
 (let ((?x738 (ite (< ?x657 1) 1 (ite (> ?x657 ?x274) ?x274 ?x657))))
 (let ((?x244 (ite (= 2 ?x234) (ite $x627 31 31) (ite (= 1 ?x234) (ite $x627 0 0) 0))))
 (let ((?x433 (ite (= 4 ?x234) (ite $x627 91 90) (ite (= 3 ?x234) (ite $x627 60 59) ?x244))))
 (let ((?x129 (ite (= 6 ?x234) (ite $x627 152 151) (ite (= 5 ?x234) (ite $x627 121 120) ?x433))))
 (let ((?x116 (ite (= 8 ?x234) (ite $x627 213 212) (ite (= 7 ?x234) (ite $x627 182 181) ?x129))))
 (let ((?x830 (ite (= 10 ?x234) (ite $x627 274 273) (ite (= 9 ?x234) (ite $x627 244 243) ?x116))))
 (let ((?x718 (ite (= 12 ?x234) (ite $x627 335 334) (ite (= 11 ?x234) (ite $x627 305 304) ?x830))))
 (let ((?x443 (- (+ (* 365 (- ?x785 1)) (div (- ?x785 1) 4)) (div (- ?x785 1) 100))))
 (let ((?x217 (- (+ (+ (+ ?x443 (div (- ?x785 1) 400)) ?x718) (- ?x738 1)) ?x97)))
 (let ((?x108 (+ (+ ?x217 0) ?x97)))
 (let ((?x187 (mod ?x108 146097)))
 (let ((?x99 (div ?x187 36524)))
 (let ((?x710 (ite (<= 4 ?x99) 3 ?x99)))
 (let ((?x834 (- ?x187 (* ?x710 36524))))
 (let ((?x840 (mod ?x834 1461)))
 (let ((?x798 (div ?x840 365)))
 (let ((?x168 (ite (<= 4 ?x798) 3 ?x798)))
 (let ((?x511 (+ (+ (* (div ?x108 146097) 400) (* ?x710 100)) (* (div ?x834 1461) 4))))
 (let ((?x555 (+ (+ ?x511 ?x168) 1)))
 (let (($x388 (or (and (= (mod ?x555 4) 0) (and (distinct (mod ?x555 100) 0) true)) (= (mod ?x555 400) 0))))
 (let ((?x557 (- ?x840 (* ?x168 365))))
 (let ((?x623 (ite $x388 31 31)))
 (let (($x471 (>= ?x557 ?x623)))
 (let ((?x387 (ite $x471 (+ (- ?x557 ?x623) 1) (+ (- ?x557 (ite $x388 0 0)) 1))))
 (let ((?x372 (ite $x388 60 59)))
 (let (($x302 (>= ?x557 ?x372)))
 (let ((?x546 (ite $x388 91 90)))
 (let (($x536 (>= ?x557 ?x546)))
 (let ((?x239 (ite $x536 (+ (- ?x557 ?x546) 1) (ite $x302 (+ (- ?x557 ?x372) 1) ?x387))))
 (let ((?x530 (ite $x388 121 120)))
 (let (($x207 (>= ?x557 ?x530)))
 (let ((?x550 (ite $x388 152 151)))
 (let (($x532 (>= ?x557 ?x550)))
 (let ((?x793 (ite $x532 (+ (- ?x557 ?x550) 1) (ite $x207 (+ (- ?x557 ?x530) 1) ?x239))))
 (let ((?x534 (ite $x388 182 181)))
 (let (($x283 (>= ?x557 ?x534)))
 (let ((?x286 (ite $x388 213 212)))
 (let (($x482 (>= ?x557 ?x286)))
 (let ((?x430 (ite $x482 (+ (- ?x557 ?x286) 1) (ite $x283 (+ (- ?x557 ?x534) 1) ?x793))))
 (let ((?x451 (ite $x388 244 243)))
 (let (($x480 (>= ?x557 ?x451)))
 (let ((?x531 (ite $x388 274 273)))
 (let (($x460 (>= ?x557 ?x531)))
 (let ((?x396 (ite $x460 (+ (- ?x557 ?x531) 1) (ite $x480 (+ (- ?x557 ?x451) 1) ?x430))))
 (let ((?x304 (ite $x388 305 304)))
 (let (($x481 (>= ?x557 ?x304)))
 (let ((?x293 (ite $x388 335 334)))
 (let (($x252 (>= ?x557 ?x293)))
 (let ((?x300 (ite $x252 (+ (- ?x557 ?x293) 1) (ite $x481 (+ (- ?x557 ?x304) 1) ?x396))))
 (let (($x251 (= 0 0)))
 (let ((?x548 (ite $x207 5 (ite $x536 4 (ite $x302 3 (ite $x471 2 1))))))
 (let ((?x470 (ite $x480 9 (ite $x482 8 (ite $x283 7 (ite $x532 6 ?x548))))))
 (let (($x723 (= y_month (ite $x251 ?x234 (ite $x252 12 (ite $x481 11 (ite $x460 10 ?x470)))))))
 (and (= y_year (ite $x251 ?x785 ?x555)) $x723 (= y_day (ite $x251 ?x738 ?x300)))))))))))))))))))))))))))))))))))))))))))))))))))))))))))))))))))))))))
(assert
 (let (($x339 (= y_day 30)))
(let (($x783 (= y_month 4)))
(let (($x340 (= y_year 2023)))
(and $x340 $x783 $x339)))))
(check-sat)
